/*********************************************
 * OPL 22.1.1.0 Data
 * Author: jishnu
 * Creation Date: 27-Jun-2024 at 4:56:48 AM
 *********************************************/

 n=3;
m=3;
demand=[0,20,30,40,0];
cost=[[0,1,2,5,7],[1,0,9,4,11][2,9,0,1,1],[5,4,1,0,1],[0,0,0,0,0]];
time_window=[[0,10],[5,10],[10,40],[30,90],[60,85]];
trav_time=[[0,0,0,0,0],[1,0,1,3,3],[1,3,0,1,3],[1,1,3,0,1],[0,0,0,0,0]];
Vehicle_capacity=50;